(set-logic QF_S)
(declare-fun var0 () String)
(assert (str.in.re var0 (re.++ (re.union (re.* (str.to.re "000")) (re.* (str.to.re "111"))) (re.++ (re.union (re.* (str.to.re "222")) (re.* (str.to.re "33"))) (re.++ (re.* (re.union (str.to.re "4") (str.to.re "55"))) (re.++ (re.+ (re.union (str.to.re "66") (str.to.re "7"))) (re.++ (re.union (re.union (str.to.re "888") (str.to.re "99")) (re.union (str.to.re "a") (str.to.re "bbb"))) (re.++ (re.union (re.union (str.to.re "c") (str.to.re "ddd")) (re.union (str.to.re "e") (str.to.re "fff"))) (re.++ (re.union (re.+ (str.to.re "gg")) (re.+ (str.to.re "hhh"))) (re.++ (re.+ (re.+ (str.to.re "iii"))) (re.++ (re.+ (re.+ (str.to.re "jj"))) (re.++ (re.union (re.union (str.to.re "kkk") (str.to.re "lll")) (re.union (str.to.re "mmm") (str.to.re "nn"))) (re.++ (re.union (re.+ (str.to.re "oo")) (re.+ (str.to.re "ppp"))) (re.++ (re.union (re.+ (str.to.re "qqq")) (re.+ (str.to.re "rr"))) (re.++ (re.+ (re.+ (str.to.re "ss"))) (re.++ (re.+ (re.+ (str.to.re "t"))) (re.++ (re.* (re.union (str.to.re "uu") (str.to.re "vv"))) (re.++ (re.+ (re.+ (str.to.re "ww"))) (re.++ (re.+ (re.* (str.to.re "x"))) (re.++ (re.* (re.+ (str.to.re "yyy"))) (re.++ (re.+ (re.+ (str.to.re "z"))) (re.++ (re.+ (re.union (str.to.re "AA") (str.to.re "B"))) (re.++ (re.+ (re.+ (str.to.re "C"))) (re.++ (re.* (re.+ (str.to.re "D"))) (re.++ (re.* (re.* (str.to.re "E"))) (re.++ (re.* (re.+ (str.to.re "F"))) (re.++ (re.+ (re.union (str.to.re "GGG") (str.to.re "HHH"))) (re.++ (re.* (re.+ (str.to.re "III"))) (re.++ (re.+ (re.* (str.to.re "JJ"))) (re.++ (re.* (re.+ (str.to.re "KK"))) (re.++ (re.+ (re.+ (str.to.re "LL"))) (re.++ (re.union (re.+ (str.to.re "MM")) (re.+ (str.to.re "NN"))) (re.++ (re.* (re.union (str.to.re "O") (str.to.re "P"))) (re.++ (re.union (re.+ (str.to.re "QQQ")) (re.+ (str.to.re "RRR"))) (re.++ (re.* (re.* (str.to.re "SSS"))) (re.++ (re.union (re.* (str.to.re "TTT")) (re.* (str.to.re "UUU"))) (re.++ (re.+ (re.* (str.to.re "VV"))) (re.++ (re.union (re.union (str.to.re "W") (str.to.re "XXX")) (re.union (str.to.re "YYY") (str.to.re "ZZ"))) (re.++ (re.* (re.* (str.to.re "!!!"))) (re.++ (re.* (re.* (str.to.re """"""))) (re.++ (re.* (re.* (str.to.re "##"))) (re.++ (re.+ (re.* (str.to.re "$"))) (re.++ (re.+ (re.+ (str.to.re "%%%"))) (re.++ (re.* (re.* (str.to.re "&&&"))) (re.++ (re.+ (re.* (str.to.re "'''"))) (re.++ (re.* (re.* (str.to.re "(("))) (re.++ (re.+ (re.union (str.to.re ")))") (str.to.re "**"))) (re.+ (re.+ (str.to.re "++"))))))))))))))))))))))))))))))))))))))))))))))))))
(assert (not (str.in.re var0 (re.++ (re.* (re.* (str.to.re "00"))) (re.++ (re.union (re.union (str.to.re "11") (str.to.re "2")) (re.union (str.to.re "333") (str.to.re "444"))) (re.++ (re.* (re.+ (str.to.re "55"))) (re.++ (re.union (re.+ (str.to.re "66")) (re.+ (str.to.re "77"))) (re.++ (re.* (re.union (str.to.re "8") (str.to.re "99"))) (re.++ (re.* (re.* (str.to.re "a"))) (re.++ (re.union (re.* (str.to.re "b")) (re.* (str.to.re "cc"))) (re.++ (re.union (re.+ (str.to.re "ddd")) (re.+ (str.to.re "eee"))) (re.++ (re.union (re.union (str.to.re "ff") (str.to.re "g")) (re.union (str.to.re "hhh") (str.to.re "i"))) (re.++ (re.union (re.union (str.to.re "j") (str.to.re "kk")) (re.union (str.to.re "l") (str.to.re "m"))) (re.++ (re.+ (re.+ (str.to.re "n"))) (re.++ (re.* (re.+ (str.to.re "o"))) (re.++ (re.* (re.union (str.to.re "p") (str.to.re "qq"))) (re.++ (re.+ (re.* (str.to.re "rr"))) (re.++ (re.union (re.union (str.to.re "sss") (str.to.re "ttt")) (re.union (str.to.re "uuu") (str.to.re "v"))) (re.++ (re.+ (re.* (str.to.re "w"))) (re.++ (re.union (re.+ (str.to.re "x")) (re.+ (str.to.re "yy"))) (re.++ (re.* (re.* (str.to.re "zzz"))) (re.++ (re.+ (re.* (str.to.re "AA"))) (re.++ (re.+ (re.union (str.to.re "BBB") (str.to.re "CCC"))) (re.++ (re.* (re.union (str.to.re "D") (str.to.re "EE"))) (re.++ (re.union (re.+ (str.to.re "FF")) (re.+ (str.to.re "GG"))) (re.++ (re.+ (re.* (str.to.re "HH"))) (re.++ (re.+ (re.union (str.to.re "III") (str.to.re "JJJ"))) (re.++ (re.union (re.* (str.to.re "K")) (re.* (str.to.re "LL"))) (re.++ (re.+ (re.+ (str.to.re "MMM"))) (re.++ (re.union (re.+ (str.to.re "NNN")) (re.+ (str.to.re "O"))) (re.++ (re.+ (re.+ (str.to.re "P"))) (re.++ (re.union (re.union (str.to.re "QQ") (str.to.re "RRR")) (re.union (str.to.re "SS") (str.to.re "TTT"))) (re.++ (re.union (re.union (str.to.re "U") (str.to.re "V")) (re.union (str.to.re "W") (str.to.re "X"))) (re.++ (re.union (re.union (str.to.re "YY") (str.to.re "ZZZ")) (re.union (str.to.re "!!!") (str.to.re """"""""))) (re.++ (re.+ (re.union (str.to.re "##") (str.to.re "$$"))) (re.++ (re.+ (re.union (str.to.re "%") (str.to.re "&&"))) (re.++ (re.+ (re.union (str.to.re "''") (str.to.re "((("))) (re.++ (re.* (re.* (str.to.re ")"))) (re.++ (re.union (re.+ (str.to.re "***")) (re.+ (str.to.re "+"))) (re.++ (re.union (re.* (str.to.re ",,")) (re.* (str.to.re "-"))) (re.++ (re.+ (re.union (str.to.re "...") (str.to.re "//"))) (re.++ (re.* (re.union (str.to.re ":::") (str.to.re ";;;"))) (re.++ (re.union (re.union (str.to.re "<<<") (str.to.re "=")) (re.union (str.to.re ">>>") (str.to.re "??"))) (re.++ (re.* (re.* (str.to.re "@"))) (re.++ (re.union (re.+ (str.to.re "[")) (re.+ (str.to.re "\\"))) (re.++ (re.+ (re.* (str.to.re "]]"))) (re.++ (re.* (re.* (str.to.re "^^^"))) (re.++ (re.+ (re.+ (str.to.re "__"))) (re.* (re.union (str.to.re "`") (str.to.re "{{{")))))))))))))))))))))))))))))))))))))))))))))))))))
(check-sat)